(set-logic QF_SLIA)
(declare-fun var0 () String)
(assert (str.in_re var0 (re.++ ((_ re.loop 0 6) (re.++ ((_ re.loop 0 8) (str.to_re ".")) (re.++ ((_ re.loop 1 17) (str.to_re "8\\")) (re.++ ((_ re.loop 2 19) (str.to_re "!5")) ((_ re.loop 0 10) (str.to_re "UTj")))))) (re.++ ((_ re.loop 1 3) (re.++ ((_ re.loop 3 11) (str.to_re "VH")) (re.++ ((_ re.loop 4 7) (str.to_re ":G4")) (re.++ ((_ re.loop 0 5) (str.to_re "b@")) ((_ re.loop 0 9) (str.to_re ",6")))))) (re.++ ((_ re.loop 1 3) (re.++ ((_ re.loop 2 8) (str.to_re "!")) (re.++ ((_ re.loop 0 9) (str.to_re "8s")) (re.++ ((_ re.loop 4 11) (str.to_re "{")) ((_ re.loop 5 5) (str.to_re "9z=")))))) ((_ re.loop 0 6) (re.++ ((_ re.loop 4 15) (str.to_re "*5")) (re.++ ((_ re.loop 3 18) (str.to_re "@eX")) (re.++ ((_ re.loop 4 7) (str.to_re "b4B")) ((_ re.loop 3 17) (str.to_re "]~")))))))))))
(assert (not (str.in_re var0 (re.++ (re.* re.allchar) (re.++ (re.union (str.to_re "<") (re.union (str.to_re ">") (re.union (str.to_re "'") (re.union (str.to_re "\u0022") (str.to_re "&"))))) (re.* re.allchar))))))
(assert (<= 50 (str.len var0)))
(check-sat)
(get-model)
